13
-1 38 29 70 87 93 99 67 81 25 79 10 48
47 -1 41 29 75 88 99 62 73 17 83 65 6
6 49 -1 7 91 51 93 65 22 61 89 82 73
60 72 9 -1 54 77 22 19 62 19 74 96 95
69 90 89 99 -1 95 17 33 73 51 87 17 40
15 73 38 96 69 -1 44 89 41 68 56 7 1
79 4 56 54 61 85 -1 88 77 58 85 13 98
82 50 27 92 49 40 66 -1 17 36 49 14 86
55 79 8 27 85 27 3 70 -1 60 11 37 56
56 86 38 1 92 50 24 67 61 -1 9 43 50
21 17 4 62 68 35 29 60 99 29 -1 6 87
12 59 48 83 32 77 36 17 30 89 85 -1 13
93 87 75 24 48 15 89 98 74 74 30 39 -1
